MILP_speck/speck32diff-round9.sol
# Objective value = 30
pro0Rd0 0
pro1Rd0 1
pro2Rd0 1
pro3Rd0 0
pro4Rd0 0
pro5Rd0 0
pro6Rd0 1
pro7Rd0 0
pro8Rd0 0
pro9Rd0 0
pro10Rd0 1
pro11Rd0 1
pro12Rd0 0
pro13Rd0 0
pro14Rd0 0
pro0Rd1 1
pro1Rd1 0
pro2Rd1 0
pro3Rd1 0
pro4Rd1 0
pro5Rd1 1
pro6Rd1 0
pro7Rd1 0
pro8Rd1 0
pro9Rd1 0
pro10Rd1 0
pro11Rd1 1
pro12Rd1 1
pro13Rd1 0
pro14Rd1 1
pro0Rd2 0
pro1Rd2 1
pro2Rd2 1
pro3Rd2 0
pro4Rd2 1
pro5Rd2 1
pro6Rd2 0
pro7Rd2 0
pro8Rd2 0
pro9Rd2 0
pro10Rd2 0
pro11Rd2 0
pro12Rd2 1
pro13Rd2 0
pro14Rd2 0
pro0Rd3 0
pro1Rd3 0
pro2Rd3 0
pro3Rd3 0
pro4Rd3 0
pro5Rd3 0
pro6Rd3 0
pro7Rd3 0
pro8Rd3 1
pro9Rd3 0
pro10Rd3 1
pro11Rd3 0
pro12Rd3 0
pro13Rd3 0
pro14Rd3 0
pro0Rd4 0
pro1Rd4 0
pro2Rd4 0
pro3Rd4 0
pro4Rd4 0
pro5Rd4 0
pro6Rd4 0
pro7Rd4 0
pro8Rd4 0
pro9Rd4 0
pro10Rd4 0
pro11Rd4 0
pro12Rd4 0
pro13Rd4 0
pro14Rd4 0
pro0Rd5 0
pro1Rd5 0
pro2Rd5 0
pro3Rd5 0
pro4Rd5 0
pro5Rd5 0
pro6Rd5 1
pro7Rd5 0
pro8Rd5 0
pro9Rd5 0
pro10Rd5 0
pro11Rd5 0
pro12Rd5 0
pro13Rd5 0
pro14Rd5 0
pro0Rd6 0
pro1Rd6 0
pro2Rd6 0
pro3Rd6 0
pro4Rd6 0
pro5Rd6 0
pro6Rd6 1
pro7Rd6 0
pro8Rd6 0
pro9Rd6 0
pro10Rd6 0
pro11Rd6 0
pro12Rd6 0
pro13Rd6 1
pro14Rd6 0
pro0Rd7 0
pro1Rd7 0
pro2Rd7 0
pro3Rd7 0
pro4Rd7 1
pro5Rd7 0
pro6Rd7 1
pro7Rd7 0
pro8Rd7 0
pro9Rd7 0
pro10Rd7 0
pro11Rd7 1
pro12Rd7 0
pro13Rd7 1
pro14Rd7 0
pro0Rd8 0
pro1Rd8 0
pro2Rd8 1
pro3Rd8 0
pro4Rd8 1
pro5Rd8 0
pro6Rd8 1
pro7Rd8 0
pro8Rd8 0
pro9Rd8 1
pro10Rd8 0
pro11Rd8 1
pro12Rd8 0
pro13Rd8 1
pro14Rd8 0
p0 0
p1 1
p2 1
p3 1
p4 1
p5 1
p6 0
p7 0
p8 0
p9 1
p10 0
p11 0
p12 1
p13 0
p14 0
p15 0
p16 1
p17 0
p18 1
p19 1
p20 0
p21 0
p22 0
p23 0
p24 1
p25 1
p26 1
p27 1
p28 1
p29 0
p30 0
p31 0
p16Rd1 1
p0Rd1 0
temp0Rnd0 1
p17Rd1 1
p1Rd1 0
temp1Rnd0 1
p18Rd1 0
p2Rd1 0
temp2Rnd0 0
p19Rd1 0
p3Rd1 0
temp3Rnd0 0
p20Rd1 0
p4Rd1 0
temp4Rnd0 0
p21Rd1 0
p5Rd1 0
temp5Rnd0 0
p22Rd1 1
p6Rd1 0
temp6Rnd0 1
p23Rd1 0
p7Rd1 1
temp7Rnd0 1
p24Rd1 0
p8Rd1 1
temp8Rnd0 1
p25Rd1 0
p9Rd1 1
temp9Rnd0 1
p26Rd1 0
p10Rd1 1
temp10Rnd0 1
p27Rd1 0
p11Rd1 0
temp11Rnd0 0
p28Rd1 0
p12Rd1 0
temp12Rnd0 0
p29Rd1 0
p13Rd1 0
temp13Rnd0 0
p30Rd1 1
p14Rd1 0
temp14Rnd0 1
p31Rd1 0
p15Rd1 0
temp15Rnd0 0
temp0 0
p16Rd2 0
p0Rd2 0
temp0Rnd1 0
p17Rd2 0
p1Rd2 0
temp1Rnd1 0
p18Rd2 0
p2Rd2 0
temp2Rnd1 0
p19Rd2 0
p3Rd2 0
temp3Rnd1 0
p20Rd2 1
p4Rd2 0
temp4Rnd1 1
p21Rd2 0
p5Rd2 0
temp5Rnd1 0
p22Rd2 1
p6Rd2 1
temp6Rnd1 1
p23Rd2 0
p7Rd2 0
temp7Rnd1 0
p24Rd2 0
p8Rd2 0
temp8Rnd1 0
p25Rd2 0
p9Rd2 0
temp9Rnd1 0
p26Rd2 0
p10Rd2 0
temp10Rnd1 0
p27Rd2 0
p11Rd2 0
temp11Rnd1 0
p28Rd2 0
p12Rd2 1
temp12Rnd1 1
p29Rd2 1
p13Rd2 1
temp13Rnd1 1
p30Rd2 0
p14Rd2 1
temp14Rnd1 1
p31Rd2 0
p15Rd2 1
temp15Rnd1 1
temp1 1
p16Rd3 0
p0Rd3 0
temp0Rnd2 0
p17Rd3 0
p1Rd3 0
temp1Rnd2 0
p18Rd3 0
p2Rd3 1
temp2Rnd2 1
p19Rd3 0
p3Rd3 0
temp3Rnd2 0
p20Rd3 0
p4Rd3 1
temp4Rnd2 1
p21Rd3 0
p5Rd3 0
temp5Rnd2 0
p22Rd3 0
p6Rd3 0
temp6Rnd2 0
p23Rd3 0
p7Rd3 0
temp7Rnd2 0
p24Rd3 0
p8Rd3 0
temp8Rnd2 0
p25Rd3 0
p9Rd3 0
temp9Rnd2 0
p26Rd3 0
p10Rd3 0
temp10Rnd2 0
p27Rd3 1
p11Rd3 0
temp11Rnd2 1
p28Rd3 0
p12Rd3 0
temp12Rnd2 0
p29Rd3 0
p13Rd3 0
temp13Rnd2 0
p30Rd3 0
p14Rd3 0
temp14Rnd2 0
p31Rd3 0
p15Rd3 0
temp15Rnd2 0
temp2 0
p16Rd4 0
p0Rd4 0
temp0Rnd3 0
p17Rd4 0
p1Rd4 0
temp1Rnd3 0
p18Rd4 0
p2Rd4 0
temp2Rnd3 0
p19Rd4 0
p3Rd4 0
temp3Rnd3 0
p20Rd4 0
p4Rd4 0
temp4Rnd3 0
p21Rd4 0
p5Rd4 0
temp5Rnd3 0
p22Rd4 0
p6Rd4 0
temp6Rnd3 0
p23Rd4 0
p7Rd4 0
temp7Rnd3 0
p24Rd4 0
p8Rd4 0
temp8Rnd3 0
p25Rd4 0
p9Rd4 1
temp9Rnd3 1
p26Rd4 0
p10Rd4 0
temp10Rnd3 0
p27Rd4 0
p11Rd4 0
temp11Rnd3 0
p28Rd4 0
p12Rd4 0
temp12Rnd3 0
p29Rd4 0
p13Rd4 0
temp13Rnd3 0
p30Rd4 0
p14Rd4 0
temp14Rnd3 0
p31Rd4 0
p15Rd4 0
temp15Rnd3 0
temp3 0
p16Rd5 1
p0Rd5 1
temp0Rnd4 1
p17Rd5 0
p1Rd5 0
temp1Rnd4 0
p18Rd5 0
p2Rd5 0
temp2Rnd4 0
p19Rd5 0
p3Rd5 0
temp3Rnd4 0
p20Rd5 0
p4Rd5 0
temp4Rnd4 0
p21Rd5 0
p5Rd5 0
temp5Rnd4 0
p22Rd5 0
p6Rd5 0
temp6Rnd4 0
p23Rd5 0
p7Rd5 0
temp7Rnd4 0
p24Rd5 0
p8Rd5 0
temp8Rnd4 0
p25Rd5 0
p9Rd5 0
temp9Rnd4 0
p26Rd5 0
p10Rd5 0
temp10Rnd4 0
p27Rd5 0
p11Rd5 0
temp11Rnd4 0
p28Rd5 0
p12Rd5 0
temp12Rnd4 0
p29Rd5 0
p13Rd5 0
temp13Rnd4 0
p30Rd5 0
p14Rd5 0
temp14Rnd4 0
p31Rd5 0
p15Rd5 0
temp15Rnd4 0
temp4 0
p16Rd6 1
p0Rd6 1
temp0Rnd5 1
p17Rd6 0
p1Rd6 0
temp1Rnd5 0
p18Rd6 0
p2Rd6 0
temp2Rnd5 0
p19Rd6 0
p3Rd6 0
temp3Rnd5 0
p20Rd6 0
p4Rd6 0
temp4Rnd5 0
p21Rd6 0
p5Rd6 0
temp5Rnd5 0
p22Rd6 0
p6Rd6 0
temp6Rnd5 0
p23Rd6 1
p7Rd6 1
temp7Rnd5 1
p24Rd6 0
p8Rd6 0
temp8Rnd5 0
p25Rd6 0
p9Rd6 0
temp9Rnd5 0
p26Rd6 0
p10Rd6 0
temp10Rnd5 0
p27Rd6 0
p11Rd6 0
temp11Rnd5 0
p28Rd6 0
p12Rd6 0
temp12Rnd5 0
p29Rd6 0
p13Rd6 0
temp13Rnd5 0
p30Rd6 1
p14Rd6 0
temp14Rnd5 1
p31Rd6 0
p15Rd6 0
temp15Rnd5 0
temp5 0
p16Rd7 1
p0Rd7 1
temp0Rnd6 1
p17Rd7 0
p1Rd7 0
temp1Rnd6 0
p18Rd7 0
p2Rd7 0
temp2Rnd6 0
p19Rd7 0
p3Rd7 0
temp3Rnd6 0
p20Rd7 0
p4Rd7 0
temp4Rnd6 0
p21Rd7 1
p5Rd7 0
temp5Rnd6 1
p22Rd7 0
p6Rd7 0
temp6Rnd6 0
p23Rd7 0
p7Rd7 0
temp7Rnd6 0
p24Rd7 0
p8Rd7 0
temp8Rnd6 0
p25Rd7 0
p9Rd7 0
temp9Rnd6 0
p26Rd7 0
p10Rd7 0
temp10Rnd6 0
p27Rd7 0
p11Rd7 0
temp11Rnd6 0
p28Rd7 1
p12Rd7 0
temp12Rnd6 1
p29Rd7 0
p13Rd7 0
temp13Rnd6 0
p30Rd7 1
p14Rd7 0
temp14Rnd6 1
p31Rd7 0
p15Rd7 0
temp15Rnd6 0
temp6 0
p16Rd8 1
p0Rd8 1
temp0Rnd7 1
p17Rd8 0
p1Rd8 0
temp1Rnd7 0
p18Rd8 0
p2Rd8 0
temp2Rnd7 0
p19Rd8 1
p3Rd8 0
temp3Rnd7 1
p20Rd8 0
p4Rd8 0
temp4Rnd7 0
p21Rd8 1
p5Rd8 1
temp5Rnd7 1
p22Rd8 0
p6Rd8 0
temp6Rnd7 0
p23Rd8 1
p7Rd8 1
temp7Rnd7 1
p24Rd8 0
p8Rd8 0
temp8Rnd7 0
p25Rd8 0
p9Rd8 0
temp9Rnd7 0
p26Rd8 1
p10Rd8 0
temp10Rnd7 1
p27Rd8 0
p11Rd8 0
temp11Rnd7 0
p28Rd8 0
p12Rd8 1
temp12Rnd7 1
p29Rd8 0
p13Rd8 0
temp13Rnd7 0
p30Rd8 0
p14Rd8 1
temp14Rnd7 1
p31Rd8 0
p15Rd8 0
temp15Rnd7 0
temp7 0
p16Rd9 1
p0Rd9 1
temp0Rnd8 1
p17Rd9 1
p1Rd9 0
temp1Rnd8 1
p18Rd9 0
p2Rd9 0
temp2Rnd8 0
p19Rd9 1
p3Rd9 0
temp3Rnd8 1
p20Rd9 0
p4Rd9 0
temp4Rnd8 0
p21Rd9 1
p5Rd9 0
temp5Rnd8 1
p22Rd9 0
p6Rd9 0
temp6Rnd8 0
p23Rd9 0
p7Rd9 0
temp7Rnd8 0
p24Rd9 1
p8Rd9 0
temp8Rnd8 1
p25Rd9 0
p9Rd9 0
temp9Rnd8 0
p26Rd9 1
p10Rd9 1
temp10Rnd8 1
p27Rd9 0
p11Rd9 0
temp11Rnd8 0
p28Rd9 1
p12Rd9 1
temp12Rnd8 1
p29Rd9 0
p13Rd9 0
temp13Rnd8 0
p30Rd9 0
p14Rd9 1
temp14Rnd8 1
p31Rd9 0
p15Rd9 0
temp15Rnd8 0
temp8 0
